n = 10; 

m= 10; 

									
											
15	44	67	33	20	67	27	14	75	75
11	32	28	23	51	37	36	3	57	46
46	21	7	23	46	46	11	38	54	68
30	35	29	45	46	24	42	47	4	38
24	18	45	27	16	1	13	13	6	45
5	5	31	5	9	6	40	41	22	23
30	2	46	29	5	7	12	24	24	8
37	39	10	22	13	8	23	34	14	7
30	31	1	8	6	3	8	44	16	10
46	21	7	23	46	46	11	38	54	68





	 












 
 


 

 
